0
0
22
[S(1)] Room rF too small for course c0033 the period 3 (day 0, timeslot 3)
[S(1)] Room rS too small for course c0033 the period 4 (day 0, timeslot 4)
[S(1)] Room rF too small for course c0033 the period 6 (day 1, timeslot 0)
[S(1)] Room rF too small for course c0033 the period 7 (day 1, timeslot 1)
[S(1)] Room rF too small for course c0033 the period 17 (day 2, timeslot 5)
[S(1)] Room rS too small for course c0033 the period 19 (day 3, timeslot 1)
[S(2)] Curriculum q004 has an isolated lecture at period 17 (day 2, timeslot 5)
[S(2)] Curriculum q004 has an isolated lecture at period 24 (day 4, timeslot 0)
[S(2)] Curriculum q006 has an isolated lecture at period 6 (day 1, timeslot 0)
[S(2)] Curriculum q013 has an isolated lecture at period 19 (day 3, timeslot 1)
[S(1)] Course c0016 uses 2 different rooms
[S(1)] Course c0031 uses 2 different rooms
[S(1)] Course c0033 uses 2 different rooms
[S(1)] Course c0059 uses 2 different rooms
[S(1)] Course c0062 uses 2 different rooms
[S(1)] Course c0064 uses 2 different rooms
[S(1)] Course c0066 uses 2 different rooms
[S(1)] Course c0071 uses 2 different rooms

Violations of Lectures (hard) : 0
Violations of Conflicts (hard) : 0
Violations of Availability (hard) : 0
Violations of RoomOccupation (hard) : 0
Cost of RoomCapacity (soft) : 6
Cost of MinWorkingDays (soft) : 0
Cost of IsolatedLectures (soft) : 8
Cost of RoomStability (soft) : 8

Summary: Total Cost = 22
Construction time in seconds: 1.549023969011614
Reaching feasibility time in seconds: 0
Improvement time in seconds: 420.4207377193825